(set-info :smt-lib-version 2.6)
(set-logic QF_NIA)
(set-info :source |
Generated by: Cristina Borralleras, Daniel Larraz, Albert Oliveras, Enric Rodriguez-Carbonell, Albert Rubio
Generated on: 2017-04-27
Generator: VeryMax
Application: Termination proving
Target solver: barcelogic
|)
(set-info :license "https://creativecommons.org/licenses/by/4.0/")
(set-info :category "industrial")
(set-info :status unsat)
(declare-fun Nl2main_bob1 () Int)
(declare-fun Nl2main_samantha1 () Int)
(declare-fun Nl2main_bob2 () Int)
(declare-fun Nl2main_samantha2 () Int)
(declare-fun lam0n0 () Int)
(declare-fun lam0n1 () Int)
(declare-fun lam0n2 () Int)
(declare-fun Nl2CT1 () Int)
(declare-fun Nl2CT2 () Int)
(declare-fun lam1n0 () Int)
(declare-fun lam1n1 () Int)
(declare-fun lam1n2 () Int)
(declare-fun lam2n0 () Int)
(declare-fun lam2n1 () Int)
(declare-fun lam2n2 () Int)
(declare-fun lam3n0 () Int)
(declare-fun lam3n1 () Int)
(declare-fun lam4n0 () Int)
(declare-fun lam4n1 () Int)
(declare-fun main_bob () Int)
(declare-fun main_samantha () Int)
(declare-fun lam8n0 () Int)
(declare-fun lam8n1 () Int)
(declare-fun lam8n2 () Int)
(declare-fun RFN1_CT () Int)
(declare-fun RFN1_main_bob () Int)
(declare-fun RFN1_main_samantha () Int)
(declare-fun lam6n0 () Int)
(declare-fun lam6n1 () Int)
(declare-fun lam6n2 () Int)
(declare-fun lam7n0 () Int)
(declare-fun lam7n1 () Int)
(declare-fun lam7n2 () Int)
(declare-fun lam5n0 () Int)
(declare-fun lam5n1 () Int)
(declare-fun lam5n2 () Int)
(assert ( and ( <= ( - 1 ) Nl2main_bob1 ) ( <= Nl2main_bob1 1 ) ( <= ( - 1 ) Nl2main_samantha1 ) ( <= Nl2main_samantha1 1 ) ( <= ( - 1 ) Nl2main_bob2 ) ( <= Nl2main_bob2 1 ) ( <= ( - 1 ) Nl2main_samantha2 ) ( <= Nl2main_samantha2 1 ) ))
(assert ( or ( and ( >= lam0n0 0 ) ( >= lam0n1 0 ) ( >= lam0n2 0 ) ( > ( + ( * ( - 99 ) lam0n0 ) ( * Nl2CT1 lam0n1 ) ( * Nl2CT2 lam0n2 ) ( - 1 ) ) 0 ) ( = ( + ( * 1 lam0n0 ) ( * Nl2main_bob1 lam0n1 ) ( * Nl2main_bob2 lam0n2 ) ) 0 ) ( = ( + ( * 1 lam0n0 ) ( * Nl2main_samantha1 lam0n1 ) ( * Nl2main_samantha2 lam0n2 ) ) 0 ) ) ( and ( >= lam1n0 0 ) ( >= lam1n1 0 ) ( >= lam1n2 0 ) ( > ( + ( * ( - 99 ) lam1n0 ) ( * Nl2CT1 lam1n1 ) ( * Nl2CT2 lam1n2 ) ( - 1 ( + ( + Nl2CT1 ( * Nl2main_bob1 0 ) ) ( * Nl2main_samantha1 0 ) ) ) ) 0 ) ( = ( + ( * 1 lam1n0 ) ( * Nl2main_bob1 lam1n1 ) ( * Nl2main_bob2 lam1n2 ) ( - ( + 0 ( * Nl2main_samantha1 1 ) ) ) ) 0 ) ( = ( + ( * 1 lam1n0 ) ( * Nl2main_samantha1 lam1n1 ) ( * Nl2main_samantha2 lam1n2 ) ( - ( + 0 ( * Nl2main_bob1 1 ) ) ) ) 0 ) ) ))
(assert ( or ( and ( >= lam0n0 0 ) ( >= lam0n1 0 ) ( >= lam0n2 0 ) ( > ( + ( * ( - 99 ) lam0n0 ) ( * Nl2CT1 lam0n1 ) ( * Nl2CT2 lam0n2 ) ( - 1 ) ) 0 ) ( = ( + ( * 1 lam0n0 ) ( * Nl2main_bob1 lam0n1 ) ( * Nl2main_bob2 lam0n2 ) ) 0 ) ( = ( + ( * 1 lam0n0 ) ( * Nl2main_samantha1 lam0n1 ) ( * Nl2main_samantha2 lam0n2 ) ) 0 ) ) ( and ( >= lam2n0 0 ) ( >= lam2n1 0 ) ( >= lam2n2 0 ) ( > ( + ( * ( - 99 ) lam2n0 ) ( * Nl2CT1 lam2n1 ) ( * Nl2CT2 lam2n2 ) ( - 1 ( + ( + Nl2CT2 ( * Nl2main_bob2 0 ) ) ( * Nl2main_samantha2 0 ) ) ) ) 0 ) ( = ( + ( * 1 lam2n0 ) ( * Nl2main_bob1 lam2n1 ) ( * Nl2main_bob2 lam2n2 ) ( - ( + 0 ( * Nl2main_samantha2 1 ) ) ) ) 0 ) ( = ( + ( * 1 lam2n0 ) ( * Nl2main_samantha1 lam2n1 ) ( * Nl2main_samantha2 lam2n2 ) ( - ( + 0 ( * Nl2main_bob2 1 ) ) ) ) 0 ) ) ))
(assert ( and ( = ( + ( - 13 ) main_bob ) 0 ) ( = ( + ( - 17 ) main_samantha ) 0 ) ( <= ( + Nl2CT1 ( * ( + 0 Nl2main_bob1 ) main_bob ) ( * ( + 0 Nl2main_samantha1 ) main_samantha ) ) 0 ) ( <= ( + Nl2CT2 ( * ( + 0 Nl2main_bob2 ) main_bob ) ( * ( + 0 Nl2main_samantha2 ) main_samantha ) ) 0 ) ))
(assert ( or ( and ( and ( >= lam8n0 0 ) ( >= lam8n1 0 ) ( >= lam8n2 0 ) ( > ( + ( * ( - 99 ) lam8n0 ) ( * Nl2CT1 lam8n1 ) ( * Nl2CT2 lam8n2 ) ( - 1 ( - ( + ( + RFN1_CT ( * RFN1_main_bob 0 ) ) ( * RFN1_main_samantha 0 ) ) RFN1_CT ) ) ) 0 ) ( = ( + ( * 1 lam8n0 ) ( * Nl2main_bob1 lam8n1 ) ( * Nl2main_bob2 lam8n2 ) ( - ( - ( + 0 ( * RFN1_main_samantha 1 ) ) RFN1_main_bob ) ) ) 0 ) ( = ( + ( * 1 lam8n0 ) ( * Nl2main_samantha1 lam8n1 ) ( * Nl2main_samantha2 lam8n2 ) ( - ( - ( + 0 ( * RFN1_main_bob 1 ) ) RFN1_main_samantha ) ) ) 0 ) ) ( and ( and ( >= lam6n0 0 ) ( >= lam6n1 0 ) ( >= lam6n2 0 ) ( > ( + ( * ( - 99 ) lam6n0 ) ( * Nl2CT1 lam6n1 ) ( * Nl2CT2 lam6n2 ) ( - 1 ( - RFN1_CT ) ) ) 0 ) ( = ( + ( * 1 lam6n0 ) ( * Nl2main_bob1 lam6n1 ) ( * Nl2main_bob2 lam6n2 ) ( - ( - RFN1_main_bob ) ) ) 0 ) ( = ( + ( * 1 lam6n0 ) ( * Nl2main_samantha1 lam6n1 ) ( * Nl2main_samantha2 lam6n2 ) ( - ( - RFN1_main_samantha ) ) ) 0 ) ) ( and ( >= lam7n0 0 ) ( >= lam7n1 0 ) ( >= lam7n2 0 ) ( > ( + ( * ( - 99 ) lam7n0 ) ( * Nl2CT1 lam7n1 ) ( * Nl2CT2 lam7n2 ) ( - 1 ( + ( - ( + ( + RFN1_CT ( * RFN1_main_bob 0 ) ) ( * RFN1_main_samantha 0 ) ) RFN1_CT ) 1 ) ) ) 0 ) ( = ( + ( * 1 lam7n0 ) ( * Nl2main_bob1 lam7n1 ) ( * Nl2main_bob2 lam7n2 ) ( - ( - ( + 0 ( * RFN1_main_samantha 1 ) ) RFN1_main_bob ) ) ) 0 ) ( = ( + ( * 1 lam7n0 ) ( * Nl2main_samantha1 lam7n1 ) ( * Nl2main_samantha2 lam7n2 ) ( - ( - ( + 0 ( * RFN1_main_bob 1 ) ) RFN1_main_samantha ) ) ) 0 ) ) ) ) ( and ( >= lam5n0 0 ) ( >= lam5n1 0 ) ( >= lam5n2 0 ) ( > ( + ( * ( - 99 ) lam5n0 ) ( * Nl2CT1 lam5n1 ) ( * Nl2CT2 lam5n2 ) ( - 1 ) ) 0 ) ( = ( + ( * 1 lam5n0 ) ( * Nl2main_bob1 lam5n1 ) ( * Nl2main_bob2 lam5n2 ) ) 0 ) ( = ( + ( * 1 lam5n0 ) ( * Nl2main_samantha1 lam5n1 ) ( * Nl2main_samantha2 lam5n2 ) ) 0 ) ) ))
(check-sat)
(exit)
